NAME : ClusterId_79 
COMMENT : (Gillet and Johnson) 
TYPE : CVRP 
DIMENSION : 24 
EDGE_WEIGHT_TYPE : EUC_2D 
CAPACITY : 140 
NODE_COORD_SECTION 
79 25 45 
56 6 25 
31 31 76 
23 11 28 
55 10 70 
25 17 64 
24 7 43 
49 12 38 
17 33 44 
51 29 39 
16 21 36 
63 20 30 
10 40 66 
18 9 56 
50 15 56 
12 35 51 
32 22 53 
40 30 50 
58 40 60 
72 35 60 
9 26 59 
39 30 60 
3 21 45 
44 21 48 
DEMAND_SECTION 
79 3270
56 26
31 25
23 6
55 7
25 14
24 27
49 5
17 20
51 12
16 19
63 11
10 26
18 13
50 22
12 16
32 28
40 33
58 21
72 1
9 29
39 16
3 11
44 17
DEPOT_SECTION 
79
 -1
EOF